NAME : lr103.1292672.tour
COMMENT : Cost = 0_1292672
COMMENT : Found by LKH [Keld Helsgaun] Fri Sep 15 17:42:01 2017
TYPE : TOUR
DIMENSION : 117
TOUR_SECTION
1
27
40
24
68
56
25
30
4
111
93
99
15
45
39
87
17
62
86
92
101
38
106
41
54
102
13
69
81
117
28
70
31
10
67
21
52
2
110
51
34
77
80
11
32
108
95
97
96
98
88
14
114
37
65
50
64
103
91
33
71
113
3
23
76
57
5
26
55
105
115
43
44
16
58
42
75
73
74
22
59
109
61
46
84
6
100
7
107
53
63
89
104
85
18
94
60
112
72
66
79
35
36
82
78
29
116
8
20
12
9
47
48
49
83
19
90
-1
EOF
